WARNING: for repeatability, setting FPU to use double precision
============================[ Problem Statistics ]=============================
|                                                                             |
|  Number of variables:         13185                                         |
|  Number of clauses:          348524                                         |
|  Parse time:                   0.09 s                                       |
|  Eliminated clauses:           0.08 Mb                                      |
|  Simplification time:          0.38 s                                       |
|                                                                             |
============================[ Search Statistics ]==============================
| Conflicts |          ORIGINAL         |          LEARNT          | Progress |
|           |    Vars  Clauses Literals |    Limit  Clauses Lit/Cl |          |
===============================================================================
===============================================================================
restarts              : 1
conflicts             : 91             (194 /sec)
decisions             : 332            (0.00 % random) (708 /sec)
propagations          : 41489          (88510 /sec)
conflict literals     : 590            (14.37 % deleted)
Memory used           : 37.14 MB
CPU time              : 0.46875 s

SATISFIABLE
